%PAL NPROCS 15 END
%maxcore 2000

! B3LYP D3BJ opt

%basis
newgto H
S   3
1         0.135775E+04           0.662212E-03
2         0.543100E+02           0.301327E-01
3         0.434480E+01           0.500000E+00
S   1
1         0.660491E+00           1.0000000
S   1
1         0.136687E+00           1.0000000
end
newgto C
S   4
1         0.139534E+06           0.897831E-04
2         0.558136E+04           0.404024E-02
3         0.446509E+03           0.697449E-01
4         0.674620E+02           0.500000E+00
S   1
1         0.150674E+02           1.0000000
S   1
1         0.393876E+01           1.0000000
S   1
1         0.299915E+00           1.0000000
P   2
1         0.283900E+02           0.422513E-01
2         0.436769E+01           0.500000E+00
P   1
1         0.869817E+00           1.0000000
P   1
1         0.188934E+00           1.0000000
end
newgto O
S   4
1         0.253789E+06           0.889629E-04
2         0.101516E+05           0.401214E-02
3         0.812125E+03           0.692649E-01
4         0.122693E+03           0.500000E+00
S   1
1         0.275608E+02           1.0000000
S   1
1         0.731726E+01           1.0000000
S   1
1         0.579240E+00           1.0000000
P   2
1         0.534157E+02           0.410416E-01
2         0.821779E+01           0.500000E+00
P   1
1         0.167544E+01           1.0000000
P   1
1         0.350672E+00           1.0000000
end
end

*xyzfile 0 1 ccc-6epoxy.xyz
